c read Graph
c width = 499
c time = 772 ms
c width = 24
c time = 1089 ms
c width = 23
c time = 4089 ms
c width = 22
c time = 5911 ms
c width = 21
c time = 13755 ms
c width = 20
c time = 20474 ms
c width = 19
c time = 30191 ms
c width = 18
c time = 50088 ms
c width = 17
c time = 146129 ms
c width = 17
c time = 146450 ms
s td 540 18 578
b 1 545 546
b 2 33 34
b 3 1 2 3
b 4 1 3 36
b 5 29 31 66 67
b 6 29 65 66 67
b 7 29 65 67 101
b 8 65 99 100 101
b 9 478 512 513 548
b 10 478 513 514 548
b 11 478 514 548 550
b 12 29 63 64 65
b 13 478 479 480 514
b 14 514 515 516 550
b 15 3 5 36 38
b 16 5 7 36 38 40
b 17 7 9 36 38 40 42
b 18 9 11 36 38 40 42 44
b 19 11 13 36 38 40 42 44 46
b 20 13 15 36 38 40 42 44 46 48
b 21 15 17 36 38 40 42 44 46 48 50
b 22 17 19 36 38 40 42 44 46 48 50 52
b 23 19 21 36 38 40 42 44 46 48 50 52 54
b 24 21 23 36 38 40 42 44 46 48 50 52 54 56
b 25 23 25 36 38 40 42 44 46 48 50 52 54 56 58
b 26 25 36 38 40 42 44 46 48 50 52 54 56 58 60 96 132 135 168
b 27 36 38 40 42 44 46 48 50 52 54 56 58 59 60 96 132 135 168
b 28 36 38 40 42 44 46 48 50 52 54 56 57 58 59 96 132 135 168
b 29 36 38 40 42 44 46 48 50 52 54 55 56 57 59 96 132 135 168
b 30 36 38 40 42 44 46 48 50 52 53 54 55 57 59 96 132 135 168
b 31 36 38 40 42 44 46 48 50 51 52 53 55 57 59 96 132 135 168
b 32 36 38 40 42 44 46 48 49 50 51 53 55 57 59 96 132 135 168
b 33 36 38 40 42 44 46 47 48 49 51 53 55 57 59 96 132 135 168
b 34 36 38 40 42 44 45 46 47 49 51 53 55 57 59 96 132 135 168
b 35 36 38 40 42 43 44 45 47 49 51 53 55 57 59 96 132 135 168
b 36 36 38 40 41 42 43 45 47 49 51 53 55 57 59 96 132 135 168
b 37 36 38 39 40 41 43 45 47 49 51 53 55 57 59 96 132 135 168
b 38 36 38 39 41 43 45 47 49 51 53 55 57 59 74 96 132 135 168
b 39 36 38 41 43 45 47 49 51 53 55 57 59 74 76 96 132 135 168
b 40 36 38 43 45 47 49 51 53 55 57 59 74 76 78 96 132 135 168
b 41 36 38 45 47 49 51 53 55 57 59 74 76 78 80 96 132 135 168
b 42 36 38 47 49 51 53 55 57 59 74 76 78 80 82 96 132 135 168
b 43 36 38 49 51 53 55 57 59 74 76 78 80 82 84 96 132 135 168
b 44 36 38 51 53 55 57 59 74 76 78 80 82 84 86 96 132 135 168
b 45 36 38 53 55 57 59 74 76 78 80 82 84 86 88 96 132 135 168
b 46 36 38 55 57 59 74 76 78 80 82 84 86 88 90 96 132 135 168
b 47 36 38 57 59 74 76 78 80 82 84 86 88 90 92 96 132 135 168
b 48 36 38 59 74 76 78 80 82 84 86 88 90 92 94 96 132 135 168
b 49 36 38 74 76 78 80 82 84 86 88 90 92 94 95 96 132 135 168
b 50 36 38 74 76 78 80 82 84 86 88 90 92 93 94 95 132 135 168
b 51 36 38 74 76 78 80 82 84 86 88 90 91 92 93 95 132 135 168
b 52 36 38 74 76 78 80 82 84 86 88 89 90 91 93 95 132 135 168
b 53 36 38 74 76 78 80 82 84 86 87 88 89 91 93 95 132 135 168
b 54 36 38 74 76 78 80 82 84 85 86 87 89 91 93 95 132 135 168
b 55 36 38 74 76 78 80 82 83 84 85 87 89 91 93 95 132 135 168
b 56 36 38 74 76 78 80 81 82 83 85 87 89 91 93 95 132 135 168
b 57 36 38 74 76 78 79 80 81 83 85 87 89 91 93 95 132 135 168
b 58 36 38 74 76 77 78 79 81 83 85 87 89 91 93 95 132 135 168
b 59 36 38 74 75 76 77 79 81 83 85 87 89 91 93 95 132 135 168
b 60 36 38 74 75 77 79 81 83 85 87 89 91 93 95 110 132 135 168
b 61 36 38 74 77 79 81 83 85 87 89 91 93 95 110 112 132 135 168
b 62 36 38 74 79 81 83 85 87 89 91 93 95 110 112 114 132 135 168
b 63 36 38 74 81 83 85 87 89 91 93 95 110 112 114 116 132 135 168
b 64 36 38 74 83 85 87 89 91 93 95 110 112 114 116 118 132 135 168
b 65 36 38 74 85 87 89 91 93 95 110 112 114 116 118 120 132 135 168
b 66 36 38 74 87 89 91 93 95 110 112 114 116 118 120 122 132 135 168
b 67 36 38 74 89 91 93 95 110 112 114 116 118 120 122 124 132 135 168
b 68 36 38 74 91 93 95 110 112 114 116 118 120 122 124 126 132 135 168
b 69 36 38 74 93 95 110 112 114 116 118 120 122 124 126 128 132 135 168
b 70 36 38 74 95 110 112 114 116 118 120 122 124 126 128 130 132 135 168
b 71 36 38 74 110 112 114 116 118 120 122 124 126 128 130 131 132 135 168
b 72 36 38 74 110 112 114 116 118 120 122 124 126 128 129 130 131 135 168
b 73 36 38 74 110 112 114 116 118 120 122 124 126 127 128 129 131 135 168
b 74 36 38 74 110 112 114 116 118 120 122 124 125 126 127 129 131 135 168
b 75 36 38 74 110 112 114 116 118 120 122 123 124 125 127 129 131 135 168
b 76 36 38 74 110 112 114 116 118 120 122 123 125 127 129 131 135 156 168
b 77 36 38 74 110 112 114 116 118 119 120 123 125 127 129 131 135 156 168
b 78 36 38 74 110 112 114 116 117 118 119 123 125 127 129 131 135 156 168
b 79 36 38 74 110 112 114 115 116 117 119 123 125 127 129 131 135 156 168
b 80 36 38 74 110 112 114 115 117 119 123 125 127 129 131 135 150 156 168
b 81 36 38 74 110 112 114 117 119 123 125 127 129 131 135 150 152 156 168
b 82 36 38 74 110 112 114 119 123 125 127 129 131 135 150 152 154 156 168
b 83 36 38 74 110 112 114 123 125 127 129 131 135 150 152 154 156 158 168
b 84 36 38 74 110 112 114 125 127 129 131 135 150 152 154 156 158 160 168
b 85 36 38 74 110 112 114 127 129 131 135 150 152 154 156 158 160 162 168
b 86 36 38 74 110 112 114 129 131 135 150 152 154 156 158 160 162 164 168
b 87 36 38 74 110 112 114 131 135 150 152 154 156 158 160 162 164 166 168
b 88 36 38 74 110 112 114 135 150 152 154 156 158 160 162 164 166 168 169
b 89 36 38 74 110 112 114 150 152 154 156 158 160 162 164 166 167 168 169
b 90 36 38 74 110 112 114 150 152 154 156 158 160 162 164 165 166 167 169
b 91 36 38 74 110 112 114 150 152 154 156 158 160 162 164 165 167 169 198
b 92 36 38 74 110 112 114 150 152 154 156 158 160 161 162 165 167 169 198
b 93 36 38 74 110 112 114 150 152 154 156 158 159 160 161 165 167 169 198
b 94 36 38 74 110 112 114 150 152 154 156 157 158 159 161 165 167 169 198
b 95 36 38 74 110 112 114 150 152 154 155 156 157 159 161 165 167 169 198
b 96 36 38 74 110 112 114 150 152 153 154 155 157 159 161 165 167 169 198
b 97 36 38 74 110 112 114 150 152 153 155 157 159 161 165 167 169 186 198
b 98 36 38 74 110 112 114 150 153 155 157 159 161 165 167 169 186 188 198
b 99 36 38 74 110 112 114 150 155 157 159 161 165 167 169 186 188 190 198
b 100 36 38 74 110 112 114 150 157 159 161 165 167 169 186 188 190 192 198
b 101 36 38 74 110 112 114 150 159 161 165 167 169 186 188 190 192 194 198
b 102 36 38 74 110 112 114 150 161 165 167 169 186 188 190 192 194 196 198
b 103 36 38 74 110 112 114 150 165 167 169 186 188 190 192 194 196 198 200
b 104 36 38 74 110 112 114 150 167 169 186 188 190 192 194 196 198 200 202
b 105 36 38 74 110 112 114 150 169 186 188 190 192 194 196 198 200 202 203
b 106 36 38 74 110 112 114 150 186 188 190 192 194 196 198 200 201 202 203
b 107 36 38 74 110 112 114 150 186 188 190 192 194 196 198 199 200 201 203
b 108 36 38 74 110 112 114 150 186 188 190 192 194 196 197 198 199 201 203
b 109 36 38 74 110 112 114 150 186 188 190 192 194 196 197 199 201 203 230
b 110 36 38 74 110 112 114 150 186 188 190 192 194 197 199 201 203 228 230
b 111 36 38 74 110 112 114 150 186 188 190 192 197 199 201 203 226 228 230
b 112 36 38 74 110 112 114 150 186 188 190 197 199 201 203 224 226 228 230
b 113 36 38 74 110 112 114 150 186 188 197 199 201 203 224 226 228 230 232
b 114 36 38 74 110 112 114 150 186 188 199 201 203 224 226 228 230 232 234
b 115 36 38 74 110 112 114 150 186 188 201 203 224 226 228 230 232 234 236
b 116 36 38 74 110 112 114 150 186 188 203 224 226 228 230 232 234 236 237
b 117 36 38 74 110 112 114 150 186 188 224 226 228 230 232 234 235 236 237
b 118 36 38 74 110 112 114 150 186 188 224 226 228 230 232 233 234 235 237
b 119 36 38 74 110 112 114 150 186 188 224 226 228 230 232 233 235 237 266
b 120 36 38 74 110 112 114 150 186 188 224 226 228 230 233 235 237 266 268
b 121 36 38 74 110 112 114 150 186 188 224 226 228 230 235 237 266 268 270
b 122 36 38 74 110 112 114 150 186 188 224 226 228 230 237 266 268 270 271
b 123 36 38 74 110 112 114 150 186 188 224 226 228 230 266 268 270 271 304
b 124 36 38 74 110 112 114 150 186 188 224 226 228 230 266 268 271 304 339
b 125 271 304 305 339
b 126 36 38 74 110 112 114 150 186 188 224 226 228 230 264 266 268 304 339
b 127 36 38 74 110 112 114 150 186 188 224 226 228 262 264 266 268 304 339
b 128 36 38 74 110 112 114 150 186 188 224 226 260 262 264 266 268 304 339
b 129 36 38 74 110 112 114 150 186 188 224 260 262 264 266 268 302 304 339
b 130 36 38 74 110 112 114 150 186 188 224 260 262 264 265 266 302 304 339
b 131 36 38 74 110 112 114 150 186 188 224 260 262 264 265 298 302 304 339
b 132 36 38 74 110 112 114 150 186 188 224 260 262 265 296 298 302 304 339
b 133 36 38 74 110 112 114 150 186 188 224 260 265 296 298 300 302 304 339
b 134 36 38 74 110 112 114 150 186 188 224 260 296 298 300 302 304 338 339
b 135 36 38 74 110 112 114 150 186 188 224 260 296 298 300 301 302 338 339
b 136 36 38 74 110 112 114 150 186 188 224 260 296 298 300 301 334 338 339
b 137 36 38 74 110 112 114 150 186 188 224 260 296 298 301 334 336 338 339
b 138 36 38 74 110 112 114 150 186 188 224 260 296 298 334 336 338 339 372
b 139 36 38 74 110 112 114 150 186 188 224 260 296 298 334 336 339 370 372
b 140 334 335 336 370
b 141 36 38 72 74 110 112 114 150 186 188 224 260 296 298 334 339 370 372
b 142 36 70 72 74 110 112 114 150 186 188 224 260 296 298 334 339 370 372
b 143 70 72 74 108 110 112 114 150 186 188 224 260 296 298 334 339 370 372
b 144 70 71 72 108 110 112 114 150 186 188 224 260 296 298 334 339 370 372
b 145 70 71 104 108 110 112 114 150 186 188 224 260 296 298 334 339 370 372
b 146 71 104 106 108 110 112 114 150 186 188 224 260 296 298 334 339 370 372
b 147 104 106 108 110 112 113 114 150 186 188 224 260 296 298 334 339 370 372
b 148 104 106 108 110 112 113 146 150 186 188 224 260 296 298 334 339 370 372
b 149 104 106 108 109 110 113 146 150 186 188 224 260 296 298 334 339 370 372
b 150 104 106 107 108 109 113 146 150 186 188 224 260 296 298 334 339 370 372
b 151 104 105 106 107 109 113 146 150 186 188 224 260 296 298 334 339 370 372
b 152 104 105 107 109 113 138 146 150 186 188 224 260 296 298 334 339 370 372
b 153 105 107 109 113 138 140 146 150 186 188 224 260 296 298 334 339 370 372
b 154 107 109 113 138 140 142 146 150 186 188 224 260 296 298 334 339 370 372
b 155 109 113 138 140 142 144 146 150 186 188 224 260 296 298 334 339 370 372
b 156 113 138 140 142 144 146 148 150 186 188 224 260 296 298 334 339 370 372
b 157 138 140 142 144 146 148 150 184 186 188 224 260 296 298 334 339 370 372
b 158 138 140 142 144 146 148 182 184 186 188 224 260 296 298 334 339 370 372
b 159 138 140 142 144 146 180 182 184 186 188 224 260 296 298 334 339 370 372
b 160 138 140 142 143 144 180 182 184 186 188 224 260 296 298 334 339 370 372
b 161 138 140 142 143 176 180 182 184 186 188 224 260 296 298 334 339 370 372
b 162 138 140 143 174 176 180 182 184 186 188 224 260 296 298 334 339 370 372
b 163 138 143 172 174 176 180 182 184 186 188 224 260 296 298 334 339 370 372
b 164 143 172 174 176 178 180 182 184 186 188 224 260 296 298 334 339 370 372
b 165 172 174 176 178 180 182 184 186 188 222 224 260 296 298 334 339 370 372
b 166 172 174 176 178 180 182 184 186 220 222 224 260 296 298 334 339 370 372
b 167 172 174 176 178 180 182 184 218 220 222 224 260 296 298 334 339 370 372
b 168 172 174 176 178 180 182 216 218 220 222 224 260 296 298 334 339 370 372
b 169 172 174 176 178 180 214 216 218 220 222 224 260 296 298 334 339 370 372
b 170 172 174 176 178 214 216 218 220 222 224 258 260 296 298 334 339 370 372
b 171 172 174 176 178 214 216 218 220 221 222 258 260 296 298 334 339 370 372
b 172 172 174 176 178 214 216 218 220 221 254 258 260 296 298 334 339 370 372
b 173 172 174 176 178 214 216 218 221 252 254 258 260 296 298 334 339 370 372
b 174 172 174 176 178 214 216 221 252 254 256 258 260 296 298 334 339 370 372
b 175 172 174 176 178 214 216 252 254 256 258 259 260 296 298 334 339 370 372
b 176 172 174 176 178 214 216 252 254 256 257 258 259 296 298 334 339 370 372
b 177 172 174 176 178 214 216 252 254 256 257 259 292 296 298 334 339 370 372
b 178 172 174 176 178 214 216 252 254 256 259 292 294 296 298 334 339 370 372
b 179 172 174 176 178 214 216 252 254 256 292 294 296 298 332 334 339 370 372
b 180 172 174 176 178 214 216 252 254 256 292 294 296 330 332 334 339 370 372
b 181 172 174 176 178 214 216 252 254 256 292 293 294 330 332 334 339 370 372
b 182 172 174 176 178 214 216 252 254 256 292 293 328 330 332 334 339 370 372
b 183 172 174 176 178 214 216 252 254 256 292 328 330 332 333 334 339 370 372
b 184 172 174 176 178 214 216 252 254 256 292 328 330 331 332 333 339 370 372
b 185 172 174 176 178 214 216 252 254 256 292 328 330 331 333 339 366 370 372
b 186 172 174 176 178 214 216 252 254 256 292 328 330 333 339 366 368 370 372
b 187 172 174 176 178 214 216 252 254 256 292 328 330 339 366 368 370 372 407
b 188 172 174 176 178 214 216 252 254 256 292 328 330 366 368 370 371 372 407
b 189 172 174 176 178 214 216 252 254 256 292 328 330 366 368 369 370 371 407
b 190 172 174 176 178 214 216 252 254 256 292 328 330 366 368 369 371 404 407
b 191 172 174 176 178 214 216 252 254 256 292 328 330 366 368 371 404 406 407
b 192 172 174 176 178 214 216 252 254 256 292 328 330 366 368 404 405 406 407
b 193 172 174 176 178 214 216 252 254 256 292 328 330 366 368 404 405 407 440
b 194 172 174 176 178 214 216 252 254 256 292 328 330 366 368 404 407 440 475
b 195 407 440 441 475
b 196 172 174 176 178 212 214 216 252 254 256 292 328 330 366 368 404 440 475
b 197 172 174 176 210 212 214 216 252 254 256 292 328 330 366 368 404 440 475
b 198 172 174 210 212 214 216 252 254 256 290 292 328 330 366 368 404 440 475
b 199 172 174 208 210 212 214 216 252 254 290 292 328 330 366 368 404 440 475
b 200 172 208 210 212 214 216 252 254 288 290 292 328 330 366 368 404 440 475
b 201 172 208 210 212 214 216 252 288 290 292 328 330 364 366 368 404 440 475
b 202 328 330 364 366 368 404 440 475
b 203 328 329 330 364
b 204 172 208 210 212 214 216 250 252 288 290 292 328 364 366 368 404 440 475
b 205 172 208 210 212 214 248 250 252 288 290 292 328 364 366 368 404 440 475
b 206 212 214 248 250 252 288 290 292 328 364 366 368 404 440 475
b 207 172 208 210 212 246 248 250 252 288 290 292 328 364 366 368 404 440 475
b 208 210 211 212 246
b 209 172 208 210 244 246 248 250 252 288 290 292 328 364 366 368 404 440 475
b 210 172 208 244 246 248 250 252 286 288 290 292 328 364 366 368 404 440 475
b 211 172 208 244 246 248 250 284 286 288 290 292 328 364 366 368 404 440 475
b 212 172 208 244 246 248 282 284 286 288 290 292 328 364 366 368 404 440 475
b 213 172 208 244 246 282 284 286 288 290 292 326 328 364 366 368 404 440 475
b 214 172 208 244 246 282 284 286 288 290 324 326 328 364 366 368 404 440 475
b 215 172 208 244 246 282 284 286 288 324 326 327 328 364 366 368 404 440 475
b 216 172 208 244 246 282 284 286 288 324 326 327 360 364 366 368 404 440 475
b 217 172 208 244 246 282 284 286 288 324 327 360 362 364 366 368 404 440 475
b 218 172 208 244 246 282 284 286 288 324 360 362 364 366 368 402 404 440 475
b 219 172 208 244 246 282 284 286 288 324 360 362 364 366 400 402 404 440 475
b 220 172 208 244 246 282 284 286 288 324 360 362 364 398 400 402 404 440 475
b 221 172 208 244 246 282 284 286 288 324 360 362 396 398 400 402 404 440 475
b 222 172 208 244 246 282 284 286 288 324 360 396 398 400 402 403 404 440 475
b 223 172 208 244 246 282 284 286 288 324 360 396 398 400 402 403 436 440 475
b 224 172 208 244 246 282 284 286 288 324 360 396 398 400 403 434 436 440 475
b 225 172 208 244 246 282 284 286 288 324 360 396 398 403 432 434 436 440 475
b 226 172 208 244 246 282 284 286 288 324 360 396 403 432 434 436 438 440 475
b 227 172 208 244 246 282 284 286 288 324 360 396 432 434 436 438 440 474 475
b 228 172 208 244 246 282 284 286 288 324 360 396 432 434 436 438 472 474 475
b 229 172 208 244 246 282 284 286 288 324 360 396 432 434 436 470 472 474 475
b 230 172 208 244 246 282 284 286 288 324 360 396 432 434 468 470 472 474 475
b 231 432 434 468 470 472 474 475
b 232 432 433 434 468
b 233 172 208 244 246 282 284 286 288 324 360 396 432 468 470 472 474 475 508
b 234 172 208 244 246 282 284 286 288 324 360 396 432 468 470 472 475 506 508
b 235 172 208 244 246 282 284 286 288 324 360 396 432 468 470 475 504 506 508
b 236 172 208 244 246 282 284 286 288 324 360 396 432 468 475 504 506 508 509
b 237 172 208 244 246 282 284 286 288 324 360 396 432 468 504 506 507 508 509
b 238 172 208 244 246 282 284 286 288 324 360 396 432 468 504 506 507 509 540
b 239 172 208 244 246 282 284 286 288 324 360 396 432 468 504 507 509 540 542
b 240 172 208 244 246 282 284 286 288 324 360 396 432 468 504 509 540 542 543
b 241 172 208 244 246 282 284 286 288 324 360 396 432 468 504 540 542 543 576
b 242 172 208 244 246 282 284 286 288 324 360 396 432 468 502 504 538 540 576
b 243 172 208 244 246 282 284 286 288 324 360 396 432 468 502 538 540 572 576
b 244 538 540 572 574 576
b 245 538 539 540 574
b 246 172 208 244 246 282 284 286 288 324 360 396 432 468 502 536 538 568 572
b 247 172 208 244 246 282 284 286 288 324 360 396 432 468 502 534 536 568 572
b 248 172 208 244 246 282 284 286 288 324 360 396 432 468 500 502 534 536 568
b 249 172 208 244 246 282 284 286 288 324 360 396 432 466 468 500 502 534 568
b 250 172 208 244 246 282 284 286 288 324 360 396 430 432 464 466 500 534 568
b 251 430 431 432 466
b 252 464 465 466 500
b 253 172 208 244 246 282 284 286 288 324 360 396 430 464 498 500 534 568
b 254 498 499 500 534
b 255 172 208 244 246 282 284 286 288 324 360 396 430 464 498 532 534 566 568
b 256 172 208 244 246 282 284 286 288 324 360 396 430 464 498 530 532 564 566
b 257 172 208 244 246 282 284 286 288 324 360 396 430 464 496 498 530 532 564
b 258 496 497 498 532
b 259 530 531 532 566
b 260 532 533 534 568
b 261 466 467 468 502
b 262 500 501 502 536
b 263 534 536 568 570 572
b 264 534 535 536 570
b 265 536 537 538 572
b 266 502 503 504 538
b 267 540 541 542 576
b 268 504 505 506 540
b 269 468 469 470 504
b 270 470 471 472 506
b 271 472 473 474 508
b 272 434 435 436 470
b 273 436 437 438 472
b 274 438 439 440 474
b 275 396 397 398 432
b 276 398 399 400 434
b 277 400 401 402 436
b 278 360 361 362 396
b 279 362 363 364 398
b 280 364 365 366 400
b 281 366 367 368 402
b 282 324 325 326 360
b 283 288 289 290 324
b 284 290 291 292 326
b 285 246 247 248 282
b 286 248 249 250 284
b 287 250 251 252 286
b 288 208 209 210 244
b 289 212 213 214 248
b 290 214 215 216 250
b 291 252 253 254 288
b 292 172 173 174 208
b 293 254 255 256 290
b 294 174 175 176 210
b 295 176 177 178 212
b 296 339 372 373 407
b 297 294 295 296 330
b 298 296 297 298 332
b 299 216 217 218 252
b 300 218 219 220 254
b 301 222 223 224 258
b 302 178 179 180 214
b 303 180 181 182 216
b 304 182 183 184 218
b 305 184 185 186 220
b 306 186 187 188 222
b 307 138 139 140 174
b 308 140 141 142 176
b 309 144 145 146 180
b 310 146 147 148 182
b 311 148 149 150 184
b 312 110 111 112 146
b 313 72 73 74 108
b 314 36 37 38 72
b 315 336 337 338 372
b 316 298 299 300 334
b 317 302 303 304 338
b 318 260 261 262 296
b 319 262 263 264 298
b 320 266 267 268 302
b 321 224 225 226 260
b 322 226 227 228 262
b 323 228 229 230 264
b 324 268 269 270 304
b 325 230 231 232 266
b 326 188 189 190 224
b 327 190 191 192 226
b 328 192 193 194 228
b 329 194 195 196 230
b 330 150 151 152 186
b 331 162 163 164 198
b 332 120 121 122 156
b 333 25 60 96 99 132 135 168
b 334 25 60 62 96 99 132 135
b 335 60 61 62 96
b 336 25 62 63 96 99 132 135
b 337 63 96 97 99 132
b 338 63 97 98 99
b 339 25 29 62 63 99 135
b 340 29 63 99 101 135
b 341 29 63 65 99 101
b 342 25 27 29 62
b 343 99 132 133 135 168
b 344 99 133 134 135
b 345 172 208 244 246 282 284 286 288 320 324 356 358 392 426 460 496 530 564
b 346 172 208 244 246 282 284 286 288 324 358 360 392 394 426 460 496 530 564
b 347 172 208 244 246 282 284 286 288 324 360 392 394 426 428 460 496 530 564
b 348 172 208 244 246 282 284 286 288 324 360 394 426 428 460 462 496 530 564
b 349 172 208 244 246 282 284 286 288 324 360 394 428 460 461 462 496 530 564
b 350 172 208 244 246 282 284 286 288 324 360 394 396 428 430 462 496 530 564
b 351 172 208 244 246 282 284 286 288 324 360 396 428 430 462 464 496 530 564
b 352 172 208 244 246 282 284 286 288 324 360 396 430 462 464 496 498 530 564
b 353 172 208 244 246 282 284 316 320 352 356 388 392 424 426 460 496 530 564
b 354 282 284 316 320 352 354 356 388 392 424 426
b 355 354 356 388 390 392 424 426
b 356 390 391 392 426
b 357 388 389 390 424
b 358 354 355 356 390
b 359 352 353 354 388
b 360 282 284 316 318 320 352 354
b 361 316 317 318 352
b 362 318 319 320 354
b 363 282 283 284 318
b 364 172 208 244 246 282 308 310 312 314 316 352 388 424 460 496 530 564
b 365 308 310 312 314 316 352 388 422 424 456 460 488 490 496 522 530 556 564
b 366 422 424 456 460 488 490 494 496 522 530 556 564
b 367 422 424 456 460 488 490 492 494 522 530 556 564
b 368 488 490 492 494 522 526 530 556 560 564
b 369 492 494 526 528 530 560 564
b 370 492 493 494 528
b 371 528 529 530 564
b 372 526 528 560 562 564
b 373 526 527 528 562
b 374 490 491 492 526
b 375 488 490 522 524 526 556 560
b 376 488 489 490 524
b 377 524 525 526 560
b 378 522 524 556 558 560
b 379 522 523 524 558
b 380 422 424 456 458 460 492 494
b 381 456 457 458 492
b 382 422 423 424 458
b 383 458 459 460 494
b 384 494 495 496 530
b 385 308 310 312 314 316 350 352 388 422 456 488 490 522 556
b 386 308 310 312 314 350 352 388 420 422 456 488 490 522 556
b 387 420 421 422 456
b 388 308 310 312 314 350 352 384 388 420 422 456 488 490 522 556
b 389 350 352 384 386 388 420 422
b 390 350 351 352 386
b 391 384 385 386 420
b 392 386 387 388 422
b 393 308 310 312 314 346 350 382 384 420 456 488 490 522 556
b 394 310 311 312 346
b 395 312 314 346 348 350 382 384
b 396 312 313 314 348
b 397 346 347 348 382
b 398 348 349 350 384
b 399 308 310 346 382 384 418 420 456 488 490 522 556
b 400 382 383 384 418
b 401 308 310 346 382 418 420 452 456 488 490 522 556
b 402 418 420 452 454 456 488 490
b 403 452 453 454 488
b 404 418 419 420 454
b 405 454 455 456 490
b 406 308 310 346 376 380 382 412 414 418 452 488 522 556
b 407 308 310 346 376 378 380 412 414
b 408 376 377 378 412
b 409 378 379 380 414
b 410 308 310 344 346 376 378 380
b 411 308 343 344 376 378
b 412 308 342 343 376
b 413 344 345 346 380
b 414 308 309 310 344
b 415 376 380 382 412 414 418 450 452 488 522 556
b 416 380 382 414 416 418 450 452
b 417 414 415 416 450
b 418 416 417 418 452
b 419 380 381 382 416
b 420 376 412 414 450 452 486 488 522 556
b 421 450 451 452 486
b 422 486 487 488 522
b 423 376 412 414 450 486 520 522 556
b 424 376 412 414 450 484 486 520 556
b 425 376 412 414 448 450 484 520 556
b 426 448 449 450 484
b 427 376 412 448 484 518 520 552 556
b 428 376 412 448 482 484 518 552
b 429 376 412 446 448 482 518 552
b 430 376 412 444 446 482 518 552
b 431 376 411 412 444 446
b 432 376 410 411 444
b 433 444 446 482 516 518 552
b 434 516 517 518 552
b 435 444 446 480 482 516 552
b 436 480 481 482 516
b 437 444 480 516 550 552
b 438 444 480 514 516 550
b 439 444 478 480 514 550
b 440 444 445 446 480
b 441 446 447 448 482
b 442 482 483 484 518
b 443 518 520 552 554 556
b 444 518 519 520 554
b 445 412 413 414 448
b 446 484 485 486 520
b 447 520 521 522 556
b 448 314 315 316 350
b 449 172 208 244 246 278 282 308 310 312 314 316
b 450 172 208 244 276 278 308 310 312
b 451 276 277 278 312
b 452 172 208 242 244 276 278 308 310
b 453 242 243 244 278
b 454 172 208 240 242 276 308 310
b 455 172 207 208 240 242
b 456 172 206 207 240
b 457 240 241 242 276
b 458 240 275 276 308 310
b 459 240 274 275 308
b 460 244 246 278 280 282 314 316
b 461 280 281 282 316
b 462 278 279 280 314
b 463 244 245 246 280
b 464 424 425 426 460
b 465 284 285 286 320
b 466 286 288 320 322 324 356 358
b 467 320 321 322 356
b 468 286 287 288 322
b 469 322 323 324 358
b 470 356 357 358 392
b 471 358 359 360 394
b 472 392 393 394 428
b 473 426 427 428 462
b 474 462 463 464 498
b 475 428 429 430 464
b 476 394 395 396 430
b 477 574 575 576
b 478 572 573 574
b 479 570 571 572
b 480 568 569 570
b 481 566 567 568
b 482 564 565 566
b 483 562 563 564
b 484 560 561 562
b 485 558 559 560
b 486 556 557 558
b 487 554 555 556
b 488 552 553 554
b 489 550 551 552
b 490 548 549 550
b 491 543 576 577
b 492 543 577 578
b 493 511 512 548
b 494 511 547 548
b 495 511 546 547
b 496 509 543 544
b 497 477 478 512
b 498 475 509 510
b 499 443 444 478
b 500 441 475 476
b 501 409 410 444
b 502 407 441 442
b 503 375 376 410
b 504 373 407 408
b 505 341 342 376
b 506 339 373 374
b 507 307 308 342
b 508 305 339 340
b 509 273 274 308
b 510 271 305 306
b 511 239 240 274
b 512 237 271 272
b 513 205 206 240
b 514 203 237 238
b 515 171 172 206
b 516 169 203 204
b 517 137 138 172
b 518 135 169 170
b 519 103 104 138
b 520 101 135 136
b 521 69 70 104
b 522 67 101 102
b 523 35 36 70
b 524 31 33 68
b 525 31 67 68
b 526 31 32 33
b 527 29 30 31
b 528 27 28 29
b 529 25 26 27
b 530 23 24 25
b 531 21 22 23
b 532 19 20 21
b 533 17 18 19
b 534 15 16 17
b 535 13 14 15
b 536 11 12 13
b 537 9 10 11
b 538 7 8 9
b 539 5 6 7
b 540 3 4 5
1 495
2 524
3 4
4 15
5 527
5 525
5 6
6 7
7 522
7 341
8 341
9 497
9 493
9 10
10 11
11 490
11 439
12 341
13 439
14 438
15 540
15 16
16 539
16 17
17 538
17 18
18 537
18 19
19 536
19 20
20 535
20 21
21 534
21 22
22 533
22 23
23 532
23 24
24 531
24 25
25 530
25 26
26 333
26 27
27 28
28 29
29 30
30 31
31 32
32 33
33 34
34 35
35 36
36 37
37 38
38 39
39 40
40 41
41 42
42 43
43 44
44 45
45 46
46 47
47 48
48 49
49 50
50 51
51 52
52 53
53 54
54 55
55 56
56 57
57 58
58 59
59 60
60 61
61 62
62 63
63 64
64 65
65 66
66 67
67 68
68 69
69 70
70 71
71 72
72 73
73 74
74 75
75 76
76 332
76 77
77 78
78 79
79 80
80 81
81 82
82 83
83 84
84 85
85 86
86 87
87 88
88 518
88 89
89 90
90 91
91 331
91 92
92 93
93 94
94 95
95 96
96 97
97 330
97 98
98 99
99 100
100 101
101 102
102 103
103 104
104 105
105 516
105 106
106 107
107 108
108 109
109 329
109 110
110 328
110 111
111 327
111 112
112 326
112 113
113 114
114 115
115 116
116 514
116 117
117 118
118 119
119 325
119 120
120 121
121 122
122 512
122 123
123 324
123 124
124 126
124 125
125 510
125 508
126 323
126 127
127 322
127 128
128 321
128 129
129 320
129 130
130 131
131 319
131 132
132 318
132 133
133 134
134 317
134 135
135 136
136 316
136 137
137 138
138 315
138 139
139 141
139 140
141 314
141 142
142 523
142 143
143 313
143 144
144 145
145 521
145 146
146 147
147 148
148 312
148 149
149 150
150 151
151 152
152 519
152 153
153 154
154 155
155 156
156 157
157 311
157 158
158 310
158 159
159 309
159 160
160 161
161 308
161 162
162 307
162 163
163 517
163 164
164 165
165 306
165 166
166 305
166 167
167 304
167 168
168 303
168 169
169 302
169 170
170 301
170 171
171 172
172 300
172 173
173 299
173 174
174 175
175 176
176 177
177 178
178 179
179 298
179 180
180 297
180 181
181 182
182 183
183 184
184 185
185 186
186 187
187 296
187 188
188 189
189 190
190 191
191 192
192 193
193 194
194 196
194 195
195 502
195 500
196 295
196 197
197 294
197 198
198 293
198 199
199 292
199 200
200 291
200 201
201 204
201 203
201 202
204 290
204 205
205 289
205 207
205 206
207 209
207 208
209 288
209 210
210 287
210 211
211 286
211 212
212 285
212 213
213 284
213 214
214 283
214 215
215 216
216 282
216 217
217 218
218 281
218 219
219 280
219 220
220 279
220 221
221 278
221 222
222 223
223 277
223 224
224 276
224 225
225 275
225 226
226 227
227 274
227 228
228 273
228 229
229 272
229 230
230 233
230 232
230 231
233 271
233 234
234 270
234 235
235 269
235 236
236 498
236 237
237 238
238 268
238 239
239 240
240 496
240 241
241 491
241 267
241 242
242 266
242 243
243 246
243 244
244 478
244 477
244 245
246 265
246 247
247 263
247 248
248 262
248 249
249 261
249 250
250 253
250 251
250 252
253 255
253 254
255 481
255 260
255 256
256 482
256 259
256 257
257 352
257 258
263 480
263 479
263 264
296 506
296 504
333 343
333 334
334 335
334 336
336 337
336 339
337 338
339 342
339 340
340 520
340 341
342 529
342 528
343 344
345 466
345 470
345 465
345 353
345 346
346 471
346 347
347 472
347 348
348 473
348 349
349 350
350 476
350 351
351 475
351 352
352 474
353 464
353 364
353 354
354 359
354 360
354 355
355 358
355 356
355 357
360 361
360 362
360 363
364 365
364 449
365 366
365 385
366 384
366 367
367 380
367 368
368 374
368 375
368 369
369 370
369 371
369 372
372 484
372 483
372 373
375 376
375 377
375 378
378 486
378 485
378 379
380 382
380 383
380 381
385 386
385 448
386 387
386 388
388 389
388 393
389 390
389 391
389 392
393 394
393 395
393 399
395 396
395 397
395 398
399 400
399 401
401 402
401 406
402 404
402 403
402 405
406 407
406 415
407 408
407 409
407 410
410 414
410 413
410 411
411 412
412 507
412 505
415 416
415 420
416 419
416 417
416 418
420 421
420 422
420 423
423 447
423 424
424 446
424 425
425 445
425 426
425 427
427 443
427 428
428 442
428 429
429 441
429 430
430 431
430 433
431 432
432 503
432 501
433 434
433 435
435 440
435 436
435 437
437 489
437 438
438 439
439 499
443 488
443 487
443 444
449 460
449 450
450 451
450 452
452 453
452 454
454 457
454 455
454 458
455 456
456 515
456 513
458 459
459 511
459 509
460 462
460 463
460 461
466 469
466 468
466 467
491 492
493 494
494 495
524 526
524 525
